(set-logic HORN)
(declare-fun state (Int (Array Int Int) (Array Int Int) (Array Int Int) (Array Int Int) Int Int (Array Int Int) (Array Int Int) Int Int Int Int Int Int Int Int Int Int Int Int Int Int Int Int Int Int Int Int Int Int Bool Bool Bool Bool Bool Int Int (Array Int Int)) Bool)
(assert (forall ((|hhv_ULTIMATE.start_L2_0_Int| Int) (|hhv_ULTIMATE.start_L2_1_Array_Int_Int| (Array Int Int)) (|hhv_ULTIMATE.start_L2_2_Array_Int_Int| (Array Int Int)) (|hhv_ULTIMATE.start_L2_3_Array_Int_Array_Int_Int| (Array Int Int)) (|hhv_ULTIMATE.start_L2_4_Array_Int_Array_Int_Int| (Array Int Int)) (|hhv_ULTIMATE.start_L2_5_Int| Int) (|hhv_ULTIMATE.start_L2_6_Int| Int) (|hhv_ULTIMATE.start_L2_7_Array_Int_Int| (Array Int Int)) (|hhv_ULTIMATE.start_L2_8_Array_Int_Int| (Array Int Int)) (|hhv_ULTIMATE.start_L2_9_Int| Int) (|hhv_ULTIMATE.start_L2_10_Int| Int) (|hhv_ULTIMATE.start_L2_11_Int| Int) (|hhv_ULTIMATE.start_L2_12_Int| Int) (|hbv_ULTIMATE.start_L16-3_13_Int_1| Int) (|hhv_ULTIMATE.start_L2_14_Int| Int) (|hhv_ULTIMATE.start_L2_15_Int| Int) (|hhv_ULTIMATE.start_L2_16_Int| Int) (|hhv_ULTIMATE.start_L2_17_Int| Int) (|hhv_ULTIMATE.start_L2_18_Int| Int) (|hhv_ULTIMATE.start_L2_19_Int| Int) (|hhv_ULTIMATE.start_L2_20_Int| Int) (|hhv_ULTIMATE.start_L2_21_Int| Int) (|hhv_ULTIMATE.start_L2_22_Int| Int) (|hhv_ULTIMATE.start_L2_23_Int| Int) (|hhv_ULTIMATE.start_L2_24_Int| Int) (|hbv_ULTIMATE.start_L16-3_25_Int_1| Int) (|hhv_ULTIMATE.start_L2_26_Int| Int) (|hhv_ULTIMATE.start_L2_27_Int| Int) (|hbv_ULTIMATE.start_L16-3_28_Int_1| Int) (|hhv_ULTIMATE.start_L2_29_Int| Int) (|hhv_ULTIMATE.start_L2_30_Int| Int) (|hhv_ULTIMATE.start_L2_31_Bool| Bool) (|.loc.5| Bool) (|.loc.6| Bool) (|.loc.7| Bool) (|.loc.8| Bool) (|hbv_ULTIMATE.start_L10_23_Int| Int) (|hbv_ULTIMATE.start_L10_24_Int| Int) (|hbv_ULTIMATE.start_L-1_1_Array_Int_Int| (Array Int Int)) (|.x.547| Int) (|.x.545| (Array Int Int)) (|.x.543| Int) (|.x.541| (Array Int Int)) (|.x.537| Int) (|.x.539| (Array Int Int)) (|.x.550| Int) (|.x.562| Int) (|.x.565| Int) (|.x.538| (Array Int Int)) (|hhv_ULTIMATE.start_ULTIMATE.startEXIT_31_Bool| Bool) (|.x.548| Int) (|.x.549| Int) (|.x.554| Int) (|.x.557| Int) (|.x.559| Int) (|.x.564| Int) (|.x.566| Int) (|.x.567| Int) (|.loc.11| Bool) (|.loc.10| Bool) (|.loc.9| Bool) (|.x.563| Int) (|.x.555| Int) (|.x.551| Int) (|.loc.12| Bool) (|.x.556| Int) (|.x.553| Int) (|.x.552| Int) (|.x.561| Int) (|.x.560| Int) (|.x.544| (Array Int Int)) (|.x.542| Int) (|.x.546| Int) (|.x.558| Int) (|.x.540| (Array Int Int)) (|.xtv.1| Int) (|.xtv.2| Int) (|.xtv.3| (Array Int Int))) (=> (and (and (and (and .loc.5 .loc.6) (not .loc.7)) (not .loc.8)) (and (and (and (and (and (= hhv_ULTIMATE.start_L2_1_Array_Int_Int hhv_ULTIMATE.start_L2_2_Array_Int_Int) (= hhv_ULTIMATE.start_L2_7_Array_Int_Int hhv_ULTIMATE.start_L2_8_Array_Int_Int)) (= hhv_ULTIMATE.start_L2_5_Int hhv_ULTIMATE.start_L2_6_Int)) (= hhv_ULTIMATE.start_L2_9_Int hhv_ULTIMATE.start_L2_10_Int)) (not hhv_ULTIMATE.start_L2_31_Bool)) (= hhv_ULTIMATE.start_L2_3_Array_Int_Array_Int_Int hhv_ULTIMATE.start_L2_4_Array_Int_Array_Int_Int))) (state |hhv_ULTIMATE.start_L2_0_Int| |hhv_ULTIMATE.start_L2_1_Array_Int_Int| |hhv_ULTIMATE.start_L2_2_Array_Int_Int| |hhv_ULTIMATE.start_L2_3_Array_Int_Array_Int_Int| |hhv_ULTIMATE.start_L2_4_Array_Int_Array_Int_Int| |hhv_ULTIMATE.start_L2_5_Int| |hhv_ULTIMATE.start_L2_6_Int| |hhv_ULTIMATE.start_L2_7_Array_Int_Int| |hhv_ULTIMATE.start_L2_8_Array_Int_Int| |hhv_ULTIMATE.start_L2_9_Int| |hhv_ULTIMATE.start_L2_10_Int| |hhv_ULTIMATE.start_L2_11_Int| |hhv_ULTIMATE.start_L2_12_Int| |hbv_ULTIMATE.start_L16-3_13_Int_1| |hhv_ULTIMATE.start_L2_14_Int| |hhv_ULTIMATE.start_L2_15_Int| |hhv_ULTIMATE.start_L2_16_Int| |hhv_ULTIMATE.start_L2_17_Int| |hhv_ULTIMATE.start_L2_18_Int| |hhv_ULTIMATE.start_L2_19_Int| |hhv_ULTIMATE.start_L2_20_Int| |hhv_ULTIMATE.start_L2_21_Int| |hhv_ULTIMATE.start_L2_22_Int| |hhv_ULTIMATE.start_L2_23_Int| |hhv_ULTIMATE.start_L2_24_Int| |hbv_ULTIMATE.start_L16-3_25_Int_1| |hhv_ULTIMATE.start_L2_26_Int| |hhv_ULTIMATE.start_L2_27_Int| |hbv_ULTIMATE.start_L16-3_28_Int_1| |hhv_ULTIMATE.start_L2_29_Int| |hhv_ULTIMATE.start_L2_30_Int| |hhv_ULTIMATE.start_L2_31_Bool| |.loc.5| |.loc.6| |.loc.7| |.loc.8| |hbv_ULTIMATE.start_L10_23_Int| |hbv_ULTIMATE.start_L10_24_Int| |hbv_ULTIMATE.start_L-1_1_Array_Int_Int|))))
(assert (forall ((|hhv_ULTIMATE.start_L2_0_Int| Int) (|hhv_ULTIMATE.start_L2_1_Array_Int_Int| (Array Int Int)) (|hhv_ULTIMATE.start_L2_2_Array_Int_Int| (Array Int Int)) (|hhv_ULTIMATE.start_L2_3_Array_Int_Array_Int_Int| (Array Int Int)) (|hhv_ULTIMATE.start_L2_4_Array_Int_Array_Int_Int| (Array Int Int)) (|hhv_ULTIMATE.start_L2_5_Int| Int) (|hhv_ULTIMATE.start_L2_6_Int| Int) (|hhv_ULTIMATE.start_L2_7_Array_Int_Int| (Array Int Int)) (|hhv_ULTIMATE.start_L2_8_Array_Int_Int| (Array Int Int)) (|hhv_ULTIMATE.start_L2_9_Int| Int) (|hhv_ULTIMATE.start_L2_10_Int| Int) (|hhv_ULTIMATE.start_L2_11_Int| Int) (|hhv_ULTIMATE.start_L2_12_Int| Int) (|hbv_ULTIMATE.start_L16-3_13_Int_1| Int) (|hhv_ULTIMATE.start_L2_14_Int| Int) (|hhv_ULTIMATE.start_L2_15_Int| Int) (|hhv_ULTIMATE.start_L2_16_Int| Int) (|hhv_ULTIMATE.start_L2_17_Int| Int) (|hhv_ULTIMATE.start_L2_18_Int| Int) (|hhv_ULTIMATE.start_L2_19_Int| Int) (|hhv_ULTIMATE.start_L2_20_Int| Int) (|hhv_ULTIMATE.start_L2_21_Int| Int) (|hhv_ULTIMATE.start_L2_22_Int| Int) (|hhv_ULTIMATE.start_L2_23_Int| Int) (|hhv_ULTIMATE.start_L2_24_Int| Int) (|hbv_ULTIMATE.start_L16-3_25_Int_1| Int) (|hhv_ULTIMATE.start_L2_26_Int| Int) (|hhv_ULTIMATE.start_L2_27_Int| Int) (|hbv_ULTIMATE.start_L16-3_28_Int_1| Int) (|hhv_ULTIMATE.start_L2_29_Int| Int) (|hhv_ULTIMATE.start_L2_30_Int| Int) (|hhv_ULTIMATE.start_L2_31_Bool| Bool) (|.loc.5| Bool) (|.loc.6| Bool) (|.loc.7| Bool) (|.loc.8| Bool) (|hbv_ULTIMATE.start_L10_23_Int| Int) (|hbv_ULTIMATE.start_L10_24_Int| Int) (|hbv_ULTIMATE.start_L-1_1_Array_Int_Int| (Array Int Int)) (|.x.547| Int) (|.x.545| (Array Int Int)) (|.x.543| Int) (|.x.541| (Array Int Int)) (|.x.537| Int) (|.x.539| (Array Int Int)) (|.x.550| Int) (|.x.562| Int) (|.x.565| Int) (|.x.538| (Array Int Int)) (|hhv_ULTIMATE.start_ULTIMATE.startEXIT_31_Bool| Bool) (|.x.548| Int) (|.x.549| Int) (|.x.554| Int) (|.x.557| Int) (|.x.559| Int) (|.x.564| Int) (|.x.566| Int) (|.x.567| Int) (|.loc.11| Bool) (|.loc.10| Bool) (|.loc.9| Bool) (|.x.563| Int) (|.x.555| Int) (|.x.551| Int) (|.loc.12| Bool) (|.x.556| Int) (|.x.553| Int) (|.x.552| Int) (|.x.561| Int) (|.x.560| Int) (|.x.544| (Array Int Int)) (|.x.542| Int) (|.x.546| Int) (|.x.558| Int) (|.x.540| (Array Int Int)) (|.xtv.1| Int) (|.xtv.2| Int) (|.xtv.3| (Array Int Int))) (=> (and (state |hhv_ULTIMATE.start_L2_0_Int| |hhv_ULTIMATE.start_L2_1_Array_Int_Int| |hhv_ULTIMATE.start_L2_2_Array_Int_Int| |hhv_ULTIMATE.start_L2_3_Array_Int_Array_Int_Int| |hhv_ULTIMATE.start_L2_4_Array_Int_Array_Int_Int| |hhv_ULTIMATE.start_L2_5_Int| |hhv_ULTIMATE.start_L2_6_Int| |hhv_ULTIMATE.start_L2_7_Array_Int_Int| |hhv_ULTIMATE.start_L2_8_Array_Int_Int| |hhv_ULTIMATE.start_L2_9_Int| |hhv_ULTIMATE.start_L2_10_Int| |hhv_ULTIMATE.start_L2_11_Int| |hhv_ULTIMATE.start_L2_12_Int| |hbv_ULTIMATE.start_L16-3_13_Int_1| |hhv_ULTIMATE.start_L2_14_Int| |hhv_ULTIMATE.start_L2_15_Int| |hhv_ULTIMATE.start_L2_16_Int| |hhv_ULTIMATE.start_L2_17_Int| |hhv_ULTIMATE.start_L2_18_Int| |hhv_ULTIMATE.start_L2_19_Int| |hhv_ULTIMATE.start_L2_20_Int| |hhv_ULTIMATE.start_L2_21_Int| |hhv_ULTIMATE.start_L2_22_Int| |hhv_ULTIMATE.start_L2_23_Int| |hhv_ULTIMATE.start_L2_24_Int| |hbv_ULTIMATE.start_L16-3_25_Int_1| |hhv_ULTIMATE.start_L2_26_Int| |hhv_ULTIMATE.start_L2_27_Int| |hbv_ULTIMATE.start_L16-3_28_Int_1| |hhv_ULTIMATE.start_L2_29_Int| |hhv_ULTIMATE.start_L2_30_Int| |hhv_ULTIMATE.start_L2_31_Bool| |.loc.5| |.loc.6| |.loc.7| |.loc.8| |hbv_ULTIMATE.start_L10_23_Int| |hbv_ULTIMATE.start_L10_24_Int| |hbv_ULTIMATE.start_L-1_1_Array_Int_Int|) (let ((.def_50 (not .loc.7))) (let ((.def_52 (not .loc.8))) (let ((.def_85 (= .x.550 0))) (let ((.def_87 (<= hhv_ULTIMATE.start_L2_21_Int hhv_ULTIMATE.start_L2_18_Int))) (let ((.def_88 (not .def_87))) (let ((.def_90 (= .x.550 .x.562))) (let ((.def_97 (select (select hhv_ULTIMATE.start_L2_3_Array_Int_Array_Int_Int hhv_ULTIMATE.start_L2_29_Int) (+ (* 4 hhv_ULTIMATE.start_L2_18_Int) hhv_ULTIMATE.start_L2_30_Int)))) (let ((.def_115 (or hhv_ULTIMATE.start_L2_31_Bool (and (and (and .def_88 .def_90) (= .def_97 .x.565)) (= .x.562 (ite (<= 0 (+ hhv_ULTIMATE.start_L2_15_Int (+ hhv_ULTIMATE.start_L2_18_Int (+ (* (- 1) hhv_ULTIMATE.start_L2_21_Int) (* (- 1) .x.565))))) 1 0)))))) (let ((.def_120 (= hbv_ULTIMATE.start_L16-3_28_Int_1 .x.565))) (let ((.def_122 (= hbv_ULTIMATE.start_L16-3_25_Int_1 .x.562))) (let ((.def_124 (= hbv_ULTIMATE.start_L16-3_13_Int_1 .x.550))) (let ((.def_128 (= hhv_ULTIMATE.start_L2_1_Array_Int_Int .x.538))) (let ((.def_132 (= hhv_ULTIMATE.start_L2_11_Int .x.548))) (let ((.def_135 (= hhv_ULTIMATE.start_L2_12_Int .x.549))) (let ((.def_138 (= hhv_ULTIMATE.start_L2_17_Int .x.554))) (let ((.def_141 (= hhv_ULTIMATE.start_L2_20_Int .x.557))) (let ((.def_144 (= hhv_ULTIMATE.start_L2_22_Int .x.559))) (let ((.def_147 (= hhv_ULTIMATE.start_L2_27_Int .x.564))) (let ((.def_150 (= hhv_ULTIMATE.start_L2_29_Int .x.566))) (let ((.def_153 (= hhv_ULTIMATE.start_L2_30_Int .x.567))) (let ((.def_155 (not .loc.5))) (let ((.def_173 (= hhv_ULTIMATE.start_L2_31_Bool hhv_ULTIMATE.start_ULTIMATE.startEXIT_31_Bool))) (let ((.def_180 (not .loc.10))) (let ((.def_183 (= hbv_ULTIMATE.start_L16-3_13_Int_1 0))) (let ((.def_186 (and .def_135 (and .def_128 .def_132)))) (let ((.def_189 (and .def_144 (and .def_141 (and .def_138 .def_186))))) (let ((.def_192 (and .def_153 (and .def_150 (and .def_147 .def_189))))) (let ((.def_201 (not .loc.11))) (let ((.def_203 (not .loc.6))) (let ((.def_208 (not .loc.9))) (let ((.def_210 (= hhv_ULTIMATE.start_L2_26_Int .x.563))) (let ((.def_233 (= hhv_ULTIMATE.start_L2_18_Int .x.555))) (let ((.def_235 (= hhv_ULTIMATE.start_L2_14_Int .x.551))) (let ((.def_254 (not .loc.12))) (let ((.def_259 (or hhv_ULTIMATE.start_ULTIMATE.startEXIT_31_Bool (= (+ hhv_ULTIMATE.start_L2_18_Int (* (- 1) .x.555)) (- 1))))) (let ((.def_263 (= hhv_ULTIMATE.start_L2_19_Int .x.556))) (let ((.def_265 (and .def_186 .def_235))) (let ((.def_266 (and .def_138 .def_265))) (let ((.def_293 (and .loc.5 (and .def_153 (and .def_150 (and .def_147 (and .def_210 (and .def_144 (and .def_141 (and .def_263 .def_266)))))))))) (let ((.def_306 (or hhv_ULTIMATE.start_L2_31_Bool (= .x.555 0)))) (let ((.def_325 (and .def_235 (and .def_135 (and .def_132 (and hhv_ULTIMATE.start_L2_31_Bool .def_128)))))) (let ((.def_334 (and .def_153 (and .def_150 (and .def_147 (and .def_210 (and .def_144 (and .def_141 (and .def_263 (and .def_233 (and .def_138 .def_325))))))))))) (let ((.def_355 (and .def_153 (and .def_150 (and .def_147 (and .def_210 (and .def_144 (and .def_141 (and .def_263 (and .def_233 .def_266)))))))))) (let ((.def_368 (or hhv_ULTIMATE.start_L2_31_Bool .def_87))) (let ((.def_385 (<= 100000 hhv_ULTIMATE.start_L2_15_Int))) (let ((.def_414 (and .loc.6 .def_355))) (let ((.def_429 (= hhv_ULTIMATE.start_L2_16_Int .x.553))) (let ((.def_431 (= hhv_ULTIMATE.start_L2_15_Int .x.552))) (let ((.def_561 (= hhv_ULTIMATE.start_L2_7_Array_Int_Int .x.544))) (let ((.def_563 (= hhv_ULTIMATE.start_L2_5_Int .x.542))) (let ((.def_566 (= hhv_ULTIMATE.start_L2_9_Int .x.546))) (let ((.def_569 (= hhv_ULTIMATE.start_L2_21_Int .x.558))) (let ((.def_583 (store hbv_ULTIMATE.start_L-1_1_Array_Int_Int .x.549 1))) (let ((.def_584 (store .def_583 .x.557 1))) (let ((.def_644 (= hhv_ULTIMATE.start_L2_3_Array_Int_Array_Int_Int .x.540))) (let ((.def_657 (= hbv_ULTIMATE.start_L10_23_Int hbv_ULTIMATE.start_L10_24_Int))) (let ((.def_703 (or hhv_ULTIMATE.start_L2_31_Bool (and (and (= hbv_ULTIMATE.start_L10_24_Int (select (select hhv_ULTIMATE.start_L2_3_Array_Int_Array_Int_Int hhv_ULTIMATE.start_L2_12_Int) (+ (* 4 hhv_ULTIMATE.start_L2_15_Int) hhv_ULTIMATE.start_L2_27_Int))) (not .def_385)) (= hbv_ULTIMATE.start_L10_23_Int (select (select hhv_ULTIMATE.start_L2_3_Array_Int_Array_Int_Int hhv_ULTIMATE.start_L2_20_Int) (+ hhv_ULTIMATE.start_L2_11_Int (* 4 hhv_ULTIMATE.start_L2_15_Int)))))))) (and (and (= hhv_ULTIMATE.start_L2_10_Int .x.547) (and (= hhv_ULTIMATE.start_L2_8_Array_Int_Int .x.545) (and (= hhv_ULTIMATE.start_L2_6_Int .x.543) (and (= hhv_ULTIMATE.start_L2_4_Array_Int_Array_Int_Int .x.541) (and (= hhv_ULTIMATE.start_L2_0_Int .x.537) (= hhv_ULTIMATE.start_L2_2_Array_Int_Int .x.539)))))) (or (or (and (or (and (or (or (or (or (or (and (or (or (or (or (or (or (or (or (or (and (or (and (or (and (or (and (or (and (or (and .def_52 (and .loc.7 (and (or hhv_ULTIMATE.start_L2_31_Bool .def_85) .def_115))) (and (and (and (and .loc.8 .def_50) .def_120) .def_122) .def_124)) (and (and (and (and (and (and (and (and (and (and .def_128 hhv_ULTIMATE.start_ULTIMATE.startEXIT_31_Bool) .def_132) .def_135) .def_138) .def_141) .def_144) .def_147) .def_150) .def_153) .def_155)) (and (or hhv_ULTIMATE.start_L2_31_Bool (and (= .x.559 0) (= .x.538 (store (store (store hhv_ULTIMATE.start_L2_1_Array_Int_Int hhv_ULTIMATE.start_L2_12_Int 0) hhv_ULTIMATE.start_L2_20_Int 0) hhv_ULTIMATE.start_L2_29_Int 0)))) (and (and (or hhv_ULTIMATE.start_ULTIMATE.startEXIT_31_Bool (= .x.554 .x.559)) (and .def_124 (and .def_122 (and .def_120 (and .def_50 (and .loc.5 .loc.8)))))) .def_173))) (and (and .loc.6 .loc.11) .def_180)) (and (or hhv_ULTIMATE.start_L2_31_Bool .def_183) (and (and (and .def_173 (and .def_124 (and .def_122 (and .def_120 (and .def_50 (and .loc.10 (and .loc.8 (and .loc.5 .def_192)))))))) .def_201) .def_203))) (and .def_208 .def_210)) (and (or hhv_ULTIMATE.start_L2_31_Bool (and .def_90 (and (= .def_97 .x.563) (and .def_88 (= .x.562 (ite (<= hhv_ULTIMATE.start_L2_18_Int .x.563) 1 0)))))) (and .def_203 (and .def_201 (and .def_173 (and .def_120 (and .def_50 (and .def_180 (and .loc.9 (and .def_155 (and .loc.8 .def_192))))))))))) (and (and .def_233 .def_235) .loc.12)) (and (and (and .def_203 (and .def_173 (and .def_124 (and .def_122 (and .def_50 (and .def_208 (and .loc.11 (and .loc.10 (and .def_52 (and .loc.5 (and .def_153 (and .def_150 (and .def_147 (and .def_189 .def_210)))))))))))))) .def_254) .def_259)) .def_263) (and .def_259 (and .def_203 (and .def_201 (and .def_173 (and .def_124 (and .def_122 (and .def_120 (and .def_50 (and .def_180 (and .def_208 (and .loc.12 (and .def_52 (and .def_155 (and .def_153 (and .def_150 (and .def_147 (and .def_144 (and .def_141 .def_266))))))))))))))))))) (and (and .def_254 (and .def_203 (and .def_173 (and .def_124 (and .def_122 (and .def_120 (and .def_208 (and .loc.11 (and .loc.10 (and .def_52 (and .loc.7 .def_293))))))))))) .def_306)) (and .def_306 (and .def_201 (and .def_173 (and .def_124 (and .def_122 (and .def_120 (and .def_180 (and .def_208 (and .loc.12 (and .def_52 (and .loc.7 (and .loc.6 .def_293))))))))))))) (and .def_203 (and .def_201 (and .def_173 (and .def_124 (and .def_122 (and .def_120 (and .def_50 (and .loc.12 (and .loc.10 (and .loc.9 (and .def_155 (and .loc.8 .def_334))))))))))))) (and (and .def_203 (and .def_201 (and .def_173 (and .def_124 (and .def_122 (and .def_120 (and .def_50 (and .loc.12 (and .loc.10 (and .loc.9 (and .def_155 (and .loc.8 .def_355)))))))))))) .def_368)) (and .def_254 (and .def_203 (and .def_173 (and .def_124 (and .def_122 (and .def_120 (and .def_180 (and .loc.11 (and .loc.9 (and .def_52 (and .def_155 (and .loc.7 .def_334))))))))))))) (and (or hhv_ULTIMATE.start_L2_31_Bool .def_385) (and .def_254 (and .def_203 (and .def_173 (and .def_124 (and .def_122 (and .def_120 (and .def_180 (and .loc.11 (and .loc.9 (and .def_52 (and .def_155 (and .loc.7 .def_355)))))))))))))) (and .def_254 (and .def_173 (and .def_124 (and .def_122 (and .def_120 (and .loc.11 (and .loc.10 (and .loc.9 (and .def_52 (and .def_155 (and .loc.7 (and .loc.6 .def_334))))))))))))) (and .def_368 (and .def_254 (and .def_173 (and .def_124 (and .def_122 (and .def_120 (and .loc.11 (and .loc.10 (and .loc.9 (and .def_52 (and .def_155 (and .loc.7 .def_414))))))))))))) (and .def_429 .def_431)) (and (or hhv_ULTIMATE.start_L2_31_Bool (= (+ hhv_ULTIMATE.start_L2_15_Int (* (- 1) .x.552)) (- 1))) (and .def_254 (and .def_173 (and .def_124 (and .def_122 (and .def_120 (and .def_50 (and .def_180 (and .def_208 (and .loc.11 (and .def_52 (and .def_155 .def_414))))))))))))) (and (or hhv_ULTIMATE.start_ULTIMATE.startEXIT_31_Bool (not .def_85)) (and .def_254 (and .def_201 (and .def_173 (and .def_180 (and .loc.9 (and .def_52 (and .def_155 (and .loc.7 (and .loc.6 (and .def_153 (and .def_150 (and .def_147 (and .def_210 (and .def_144 (and .def_141 (and .def_263 (and .def_233 (and .def_138 (and .def_429 (and .def_431 (and .def_235 (and .def_135 (and .def_132 (and .def_115 .def_128)))))))))))))))))))))))))) (and .def_254 (and .def_201 (and .def_180 (and .loc.9 (and .def_52 (and .def_155 (and .loc.7 (and .loc.6 (and .def_153 (and .def_150 (and .def_147 (and .def_210 (and .def_144 (and .def_141 (and .def_263 (and .def_233 (and .def_138 (and .def_429 (and .def_431 (and .def_235 (and .def_135 (and .def_132 (and .def_128 (and .def_115 (and hhv_ULTIMATE.start_L2_31_Bool hhv_ULTIMATE.start_ULTIMATE.startEXIT_31_Bool)))))))))))))))))))))))))) (and (or hhv_ULTIMATE.start_L2_31_Bool (not .def_183)) (and .def_254 (and .def_203 (and .def_201 (and .def_173 (and .def_124 (and .def_122 (and .def_120 (and .def_50 (and .def_180 (and .def_208 (and .loc.8 (and .loc.5 (and .def_153 (and .def_150 (and .def_147 (and .def_210 (and .def_144 (and .def_141 (and .def_263 (and .def_233 (and .def_138 (and .def_429 (and .def_265 .def_431))))))))))))))))))))))))) (and .def_254 (and .def_201 (and .def_173 (and .def_124 (and .def_122 (and .def_120 (and .def_50 (and .def_180 (and .def_208 (and .def_155 (and .loc.8 (and .loc.6 (and .def_153 (and .def_150 (and .def_147 (and .def_210 (and .def_144 (and .def_141 (and .def_263 (and .def_233 (and .def_138 (and .def_429 (and .def_325 .def_431)))))))))))))))))))))))) (and (= hhv_ULTIMATE.start_L2_24_Int .x.561) (and (= hhv_ULTIMATE.start_L2_23_Int .x.560) (and (and (and .def_561 .def_563) .def_566) .def_569)))) (and (or hhv_ULTIMATE.start_L2_31_Bool (and (and (= .x.542 0) (= .x.546 0)) (= hbv_ULTIMATE.start_L-1_1_Array_Int_Int (store hhv_ULTIMATE.start_L2_1_Array_Int_Int 0 0)))) (and (or hhv_ULTIMATE.start_ULTIMATE.startEXIT_31_Bool (and (and (and (and (and (and (and (and (and (and (and (and (and (and (not (<= .x.537 .x.549)) (and (= .x.538 (store .def_584 .x.566 1)) (not (= .x.549 0)))) (not (<= .x.537 .x.557))) (= (select .def_583 .x.557) 0)) (= .x.552 0)) (not (= .x.566 0))) (= .x.567 0)) (= .x.564 0)) (not (= .x.557 0))) (= (select .def_584 .x.566) 0)) (= (select hbv_ULTIMATE.start_L-1_1_Array_Int_Int .x.549) 0)) (not (<= .x.537 .x.566))) (= .x.558 0)) (= .x.544 (store (store (store hhv_ULTIMATE.start_L2_7_Array_Int_Int .x.549 400000) .x.557 400000) .x.566 400000))) (= .x.548 0))) (and .def_254 (and .def_173 (and .def_124 (and .def_122 (and .def_50 (and .def_180 (and .def_208 (and .loc.11 (and .def_52 (and .loc.6 (and .loc.5 .def_138)))))))))))))) .def_644) (and (and (or hhv_ULTIMATE.start_ULTIMATE.startEXIT_31_Bool (and (and (= .x.540 (store hhv_ULTIMATE.start_L2_3_Array_Int_Array_Int_Int .x.566 (store (select hhv_ULTIMATE.start_L2_3_Array_Int_Array_Int_Int .x.566) (+ (* 4 hhv_ULTIMATE.start_L2_21_Int) .x.567) .x.552))) (= (+ hhv_ULTIMATE.start_L2_21_Int (* (- 1) .x.558)) (- 1))) .def_657)) (and .def_254 (and .def_203 (and .def_201 (and .def_173 (and .def_124 (and .def_122 (and .def_120 (and .def_208 (and .loc.10 (and .def_52 (and .def_155 (and .loc.7 (and .def_153 (and .def_150 (and .def_147 (and .def_210 (and .def_144 (and .def_141 (and .def_263 (and .def_233 (and .def_138 (and .def_429 (and .def_431 (and .def_235 (and .def_135 (and .def_132 (and .def_566 (and .def_561 (and .def_128 .def_563)))))))))))))))))))))))))))))) .def_703)) (and (or hhv_ULTIMATE.start_ULTIMATE.startEXIT_31_Bool (not .def_657)) (and .def_703 (and .def_254 (and .def_203 (and .def_201 (and .def_173 (and .def_124 (and .def_122 (and .def_120 (and .def_208 (and .loc.10 (and .def_52 (and .def_155 (and .loc.7 (and .def_153 (and .def_150 (and .def_147 (and .def_210 (and .def_144 (and .def_569 (and .def_141 (and .def_263 (and .def_233 (and .def_138 (and .def_429 (and .def_431 (and .def_235 (and .def_135 (and .def_132 (and .def_566 (and .def_561 (and .def_563 (and .def_128 .def_644))))))))))))))))))))))))))))))))))))))))))))))))))))))))))))))))))))))))))))))))))))))))))))) (state |.x.537| |.x.538| |.x.539| |.x.540| |.x.541| |.x.542| |.x.543| |.x.544| |.x.545| |.x.546| |.x.547| |.x.548| |.x.549| |.x.550| |.x.551| |.x.552| |.x.553| |.x.554| |.x.555| |.x.556| |.x.557| |.x.558| |.x.559| |.x.560| |.x.561| |.x.562| |.x.563| |.x.564| |.x.565| |.x.566| |.x.567| |hhv_ULTIMATE.start_ULTIMATE.startEXIT_31_Bool| |.loc.9| |.loc.10| |.loc.11| |.loc.12| |.xtv.1| |.xtv.2| |.xtv.3|))))
(assert (forall ((|hhv_ULTIMATE.start_L2_0_Int| Int) (|hhv_ULTIMATE.start_L2_1_Array_Int_Int| (Array Int Int)) (|hhv_ULTIMATE.start_L2_2_Array_Int_Int| (Array Int Int)) (|hhv_ULTIMATE.start_L2_3_Array_Int_Array_Int_Int| (Array Int Int)) (|hhv_ULTIMATE.start_L2_4_Array_Int_Array_Int_Int| (Array Int Int)) (|hhv_ULTIMATE.start_L2_5_Int| Int) (|hhv_ULTIMATE.start_L2_6_Int| Int) (|hhv_ULTIMATE.start_L2_7_Array_Int_Int| (Array Int Int)) (|hhv_ULTIMATE.start_L2_8_Array_Int_Int| (Array Int Int)) (|hhv_ULTIMATE.start_L2_9_Int| Int) (|hhv_ULTIMATE.start_L2_10_Int| Int) (|hhv_ULTIMATE.start_L2_11_Int| Int) (|hhv_ULTIMATE.start_L2_12_Int| Int) (|hbv_ULTIMATE.start_L16-3_13_Int_1| Int) (|hhv_ULTIMATE.start_L2_14_Int| Int) (|hhv_ULTIMATE.start_L2_15_Int| Int) (|hhv_ULTIMATE.start_L2_16_Int| Int) (|hhv_ULTIMATE.start_L2_17_Int| Int) (|hhv_ULTIMATE.start_L2_18_Int| Int) (|hhv_ULTIMATE.start_L2_19_Int| Int) (|hhv_ULTIMATE.start_L2_20_Int| Int) (|hhv_ULTIMATE.start_L2_21_Int| Int) (|hhv_ULTIMATE.start_L2_22_Int| Int) (|hhv_ULTIMATE.start_L2_23_Int| Int) (|hhv_ULTIMATE.start_L2_24_Int| Int) (|hbv_ULTIMATE.start_L16-3_25_Int_1| Int) (|hhv_ULTIMATE.start_L2_26_Int| Int) (|hhv_ULTIMATE.start_L2_27_Int| Int) (|hbv_ULTIMATE.start_L16-3_28_Int_1| Int) (|hhv_ULTIMATE.start_L2_29_Int| Int) (|hhv_ULTIMATE.start_L2_30_Int| Int) (|hhv_ULTIMATE.start_L2_31_Bool| Bool) (|.loc.5| Bool) (|.loc.6| Bool) (|.loc.7| Bool) (|.loc.8| Bool) (|hbv_ULTIMATE.start_L10_23_Int| Int) (|hbv_ULTIMATE.start_L10_24_Int| Int) (|hbv_ULTIMATE.start_L-1_1_Array_Int_Int| (Array Int Int)) (|.x.547| Int) (|.x.545| (Array Int Int)) (|.x.543| Int) (|.x.541| (Array Int Int)) (|.x.537| Int) (|.x.539| (Array Int Int)) (|.x.550| Int) (|.x.562| Int) (|.x.565| Int) (|.x.538| (Array Int Int)) (|hhv_ULTIMATE.start_ULTIMATE.startEXIT_31_Bool| Bool) (|.x.548| Int) (|.x.549| Int) (|.x.554| Int) (|.x.557| Int) (|.x.559| Int) (|.x.564| Int) (|.x.566| Int) (|.x.567| Int) (|.loc.11| Bool) (|.loc.10| Bool) (|.loc.9| Bool) (|.x.563| Int) (|.x.555| Int) (|.x.551| Int) (|.loc.12| Bool) (|.x.556| Int) (|.x.553| Int) (|.x.552| Int) (|.x.561| Int) (|.x.560| Int) (|.x.544| (Array Int Int)) (|.x.542| Int) (|.x.546| Int) (|.x.558| Int) (|.x.540| (Array Int Int)) (|.xtv.1| Int) (|.xtv.2| Int) (|.xtv.3| (Array Int Int))) (=> (state |hhv_ULTIMATE.start_L2_0_Int| |hhv_ULTIMATE.start_L2_1_Array_Int_Int| |hhv_ULTIMATE.start_L2_2_Array_Int_Int| |hhv_ULTIMATE.start_L2_3_Array_Int_Array_Int_Int| |hhv_ULTIMATE.start_L2_4_Array_Int_Array_Int_Int| |hhv_ULTIMATE.start_L2_5_Int| |hhv_ULTIMATE.start_L2_6_Int| |hhv_ULTIMATE.start_L2_7_Array_Int_Int| |hhv_ULTIMATE.start_L2_8_Array_Int_Int| |hhv_ULTIMATE.start_L2_9_Int| |hhv_ULTIMATE.start_L2_10_Int| |hhv_ULTIMATE.start_L2_11_Int| |hhv_ULTIMATE.start_L2_12_Int| |hbv_ULTIMATE.start_L16-3_13_Int_1| |hhv_ULTIMATE.start_L2_14_Int| |hhv_ULTIMATE.start_L2_15_Int| |hhv_ULTIMATE.start_L2_16_Int| |hhv_ULTIMATE.start_L2_17_Int| |hhv_ULTIMATE.start_L2_18_Int| |hhv_ULTIMATE.start_L2_19_Int| |hhv_ULTIMATE.start_L2_20_Int| |hhv_ULTIMATE.start_L2_21_Int| |hhv_ULTIMATE.start_L2_22_Int| |hhv_ULTIMATE.start_L2_23_Int| |hhv_ULTIMATE.start_L2_24_Int| |hbv_ULTIMATE.start_L16-3_25_Int_1| |hhv_ULTIMATE.start_L2_26_Int| |hhv_ULTIMATE.start_L2_27_Int| |hbv_ULTIMATE.start_L16-3_28_Int_1| |hhv_ULTIMATE.start_L2_29_Int| |hhv_ULTIMATE.start_L2_30_Int| |hhv_ULTIMATE.start_L2_31_Bool| |.loc.5| |.loc.6| |.loc.7| |.loc.8| |hbv_ULTIMATE.start_L10_23_Int| |hbv_ULTIMATE.start_L10_24_Int| |hbv_ULTIMATE.start_L-1_1_Array_Int_Int|) (not (and hhv_ULTIMATE.start_L2_31_Bool (and .loc.8 (and .loc.7 (and (not .loc.5) (not .loc.6)))))))))
(check-sat)
